; SMT 2
(set-info :source "Generated by CBMC 5.3")
(set-option :produce-models true)
(set-logic QF_AUFBV)

; find_symbols
(declare-fun |goto_symex::&92;guard#1| () Bool)
; convert
(define-fun |B0| () Bool |goto_symex::&92;guard#1|)

; convert
(define-fun |B1| () Bool |goto_symex::&92;guard#1|)

; convert
(define-fun |B2| () Bool |goto_symex::&92;guard#1|)

; convert
(define-fun |B3| () Bool |goto_symex::&92;guard#1|)

; convert
(define-fun |B4| () Bool |goto_symex::&92;guard#1|)

; convert
(define-fun |B5| () Bool |goto_symex::&92;guard#1|)

; convert
(define-fun |B6| () Bool |goto_symex::&92;guard#1|)

; convert
(define-fun |B7| () Bool |goto_symex::&92;guard#1|)

; convert
(define-fun |B8| () Bool |goto_symex::&92;guard#1|)

; convert
(define-fun |B9| () Bool |goto_symex::&92;guard#1|)

; convert
(define-fun |B10| () Bool |goto_symex::&92;guard#1|)

; find_symbols
(declare-fun |goto_symex::&92;guard#2| () Bool)
; convert
(define-fun |B11| () Bool (and |goto_symex::&92;guard#1| |goto_symex::&92;guard#2|))

; convert
(define-fun |B12| () Bool (and |goto_symex::&92;guard#1| |goto_symex::&92;guard#2|))

; convert
(define-fun |B13| () Bool (and |goto_symex::&92;guard#1| |goto_symex::&92;guard#2|))

; convert
(define-fun |B14| () Bool (and |goto_symex::&92;guard#1| |goto_symex::&92;guard#2|))

; convert
(define-fun |B15| () Bool (and |goto_symex::&92;guard#1| |goto_symex::&92;guard#2|))

; find_symbols
(declare-fun |goto_symex::&92;guard#3| () Bool)
; convert
(define-fun |B16| () Bool (and |goto_symex::&92;guard#1| |goto_symex::&92;guard#2| |goto_symex::&92;guard#3|))

; convert
(define-fun |B17| () Bool (and |goto_symex::&92;guard#1| |goto_symex::&92;guard#2| |goto_symex::&92;guard#3|))

; convert
(define-fun |B18| () Bool (and |goto_symex::&92;guard#1| |goto_symex::&92;guard#2| |goto_symex::&92;guard#3|))

; convert
(define-fun |B19| () Bool (and |goto_symex::&92;guard#1| |goto_symex::&92;guard#2| |goto_symex::&92;guard#3|))

; convert
(define-fun |B20| () Bool (and |goto_symex::&92;guard#1| |goto_symex::&92;guard#2| |goto_symex::&92;guard#3|))

; find_symbols
(declare-fun |goto_symex::&92;guard#4| () Bool)
; convert
(define-fun |B21| () Bool (and |goto_symex::&92;guard#1| |goto_symex::&92;guard#2| |goto_symex::&92;guard#3| |goto_symex::&92;guard#4|))

; convert
(define-fun |B22| () Bool (and |goto_symex::&92;guard#1| |goto_symex::&92;guard#2| |goto_symex::&92;guard#3| |goto_symex::&92;guard#4|))

; convert
(define-fun |B23| () Bool (and |goto_symex::&92;guard#1| |goto_symex::&92;guard#2| |goto_symex::&92;guard#3| |goto_symex::&92;guard#4|))

; convert
(define-fun |B24| () Bool (and |goto_symex::&92;guard#1| |goto_symex::&92;guard#2| |goto_symex::&92;guard#3| |goto_symex::&92;guard#4|))

; convert
(define-fun |B25| () Bool (and |goto_symex::&92;guard#1| |goto_symex::&92;guard#2| |goto_symex::&92;guard#3| |goto_symex::&92;guard#4|))

; find_symbols
(declare-fun |goto_symex::&92;guard#5| () Bool)
; convert
(define-fun |B26| () Bool (and |goto_symex::&92;guard#1| |goto_symex::&92;guard#2| |goto_symex::&92;guard#3| |goto_symex::&92;guard#4| |goto_symex::&92;guard#5|))

; convert
(define-fun |B27| () Bool (and |goto_symex::&92;guard#1| |goto_symex::&92;guard#2| |goto_symex::&92;guard#3| |goto_symex::&92;guard#4| |goto_symex::&92;guard#5|))

; convert
(define-fun |B28| () Bool (and |goto_symex::&92;guard#1| |goto_symex::&92;guard#2| |goto_symex::&92;guard#3| |goto_symex::&92;guard#4| |goto_symex::&92;guard#5|))

; convert
(define-fun |B29| () Bool (and |goto_symex::&92;guard#1| |goto_symex::&92;guard#2| |goto_symex::&92;guard#3| |goto_symex::&92;guard#4| |goto_symex::&92;guard#5|))

; convert
(define-fun |B30| () Bool (and |goto_symex::&92;guard#1| |goto_symex::&92;guard#2| |goto_symex::&92;guard#3| |goto_symex::&92;guard#4| |goto_symex::&92;guard#5|))

; find_symbols
(declare-fun |goto_symex::&92;guard#6| () Bool)
; convert
(define-fun |B31| () Bool (and |goto_symex::&92;guard#1| |goto_symex::&92;guard#2| |goto_symex::&92;guard#3| |goto_symex::&92;guard#4| |goto_symex::&92;guard#5| |goto_symex::&92;guard#6|))

; convert
(define-fun |B32| () Bool (and |goto_symex::&92;guard#1| |goto_symex::&92;guard#2| |goto_symex::&92;guard#3| |goto_symex::&92;guard#4| |goto_symex::&92;guard#5| |goto_symex::&92;guard#6|))

; convert
(define-fun |B33| () Bool (and |goto_symex::&92;guard#1| |goto_symex::&92;guard#2| |goto_symex::&92;guard#3| |goto_symex::&92;guard#4| |goto_symex::&92;guard#5| |goto_symex::&92;guard#6|))

; convert
(define-fun |B34| () Bool (and |goto_symex::&92;guard#1| |goto_symex::&92;guard#2| |goto_symex::&92;guard#3| |goto_symex::&92;guard#4| |goto_symex::&92;guard#5| |goto_symex::&92;guard#6|))

; convert
(define-fun |B35| () Bool (and |goto_symex::&92;guard#1| |goto_symex::&92;guard#2| |goto_symex::&92;guard#3| |goto_symex::&92;guard#4| |goto_symex::&92;guard#5| |goto_symex::&92;guard#6|))

; find_symbols
(declare-fun |goto_symex::&92;guard#7| () Bool)
; convert
(define-fun |B36| () Bool (and |goto_symex::&92;guard#1| |goto_symex::&92;guard#2| |goto_symex::&92;guard#3| |goto_symex::&92;guard#4| |goto_symex::&92;guard#5| |goto_symex::&92;guard#6| |goto_symex::&92;guard#7|))

; convert
(define-fun |B37| () Bool (and |goto_symex::&92;guard#1| |goto_symex::&92;guard#2| |goto_symex::&92;guard#3| |goto_symex::&92;guard#4| |goto_symex::&92;guard#5| |goto_symex::&92;guard#6| |goto_symex::&92;guard#7|))

; convert
(define-fun |B38| () Bool (and |goto_symex::&92;guard#1| |goto_symex::&92;guard#2| |goto_symex::&92;guard#3| |goto_symex::&92;guard#4| |goto_symex::&92;guard#5| |goto_symex::&92;guard#6| |goto_symex::&92;guard#7|))

; convert
(define-fun |B39| () Bool (and |goto_symex::&92;guard#1| |goto_symex::&92;guard#2| |goto_symex::&92;guard#3| |goto_symex::&92;guard#4| |goto_symex::&92;guard#5| |goto_symex::&92;guard#6| |goto_symex::&92;guard#7|))

; convert
(define-fun |B40| () Bool (and |goto_symex::&92;guard#1| |goto_symex::&92;guard#2| |goto_symex::&92;guard#3| |goto_symex::&92;guard#4| |goto_symex::&92;guard#5| |goto_symex::&92;guard#6| |goto_symex::&92;guard#7|))

; find_symbols
(declare-fun |goto_symex::&92;guard#8| () Bool)
; convert
(define-fun |B41| () Bool (and |goto_symex::&92;guard#1| |goto_symex::&92;guard#2| |goto_symex::&92;guard#3| |goto_symex::&92;guard#4| |goto_symex::&92;guard#5| |goto_symex::&92;guard#6| |goto_symex::&92;guard#7| |goto_symex::&92;guard#8|))

; convert
(define-fun |B42| () Bool (and |goto_symex::&92;guard#1| |goto_symex::&92;guard#2| |goto_symex::&92;guard#3| |goto_symex::&92;guard#4| |goto_symex::&92;guard#5| |goto_symex::&92;guard#6| |goto_symex::&92;guard#7| |goto_symex::&92;guard#8|))

; convert
(define-fun |B43| () Bool (and |goto_symex::&92;guard#1| |goto_symex::&92;guard#2| |goto_symex::&92;guard#3| |goto_symex::&92;guard#4| |goto_symex::&92;guard#5| |goto_symex::&92;guard#6| |goto_symex::&92;guard#7| |goto_symex::&92;guard#8|))

; convert
(define-fun |B44| () Bool (and |goto_symex::&92;guard#1| |goto_symex::&92;guard#2| |goto_symex::&92;guard#3| |goto_symex::&92;guard#4| |goto_symex::&92;guard#5| |goto_symex::&92;guard#6| |goto_symex::&92;guard#7| |goto_symex::&92;guard#8|))

; convert
(define-fun |B45| () Bool (and |goto_symex::&92;guard#1| |goto_symex::&92;guard#2| |goto_symex::&92;guard#3| |goto_symex::&92;guard#4| |goto_symex::&92;guard#5| |goto_symex::&92;guard#6| |goto_symex::&92;guard#7| |goto_symex::&92;guard#8|))

; find_symbols
(declare-fun |goto_symex::&92;guard#9| () Bool)
; convert
(define-fun |B46| () Bool (and |goto_symex::&92;guard#1| |goto_symex::&92;guard#2| |goto_symex::&92;guard#3| |goto_symex::&92;guard#4| |goto_symex::&92;guard#5| |goto_symex::&92;guard#6| |goto_symex::&92;guard#7| |goto_symex::&92;guard#8| |goto_symex::&92;guard#9|))

; convert
(define-fun |B47| () Bool (and |goto_symex::&92;guard#1| |goto_symex::&92;guard#2| |goto_symex::&92;guard#3| |goto_symex::&92;guard#4| |goto_symex::&92;guard#5| |goto_symex::&92;guard#6| |goto_symex::&92;guard#7| |goto_symex::&92;guard#8| |goto_symex::&92;guard#9|))

; convert
(define-fun |B48| () Bool (and |goto_symex::&92;guard#1| |goto_symex::&92;guard#2| |goto_symex::&92;guard#3| |goto_symex::&92;guard#4| |goto_symex::&92;guard#5| |goto_symex::&92;guard#6| |goto_symex::&92;guard#7| |goto_symex::&92;guard#8| |goto_symex::&92;guard#9|))

; convert
(define-fun |B49| () Bool (and |goto_symex::&92;guard#1| |goto_symex::&92;guard#2| |goto_symex::&92;guard#3| |goto_symex::&92;guard#4| |goto_symex::&92;guard#5| |goto_symex::&92;guard#6| |goto_symex::&92;guard#7| |goto_symex::&92;guard#8| |goto_symex::&92;guard#9|))

; convert
(define-fun |B50| () Bool (and |goto_symex::&92;guard#1| |goto_symex::&92;guard#2| |goto_symex::&92;guard#3| |goto_symex::&92;guard#4| |goto_symex::&92;guard#5| |goto_symex::&92;guard#6| |goto_symex::&92;guard#7| |goto_symex::&92;guard#8| |goto_symex::&92;guard#9|))

; find_symbols
(declare-fun |goto_symex::&92;guard#10| () Bool)
; convert
(define-fun |B51| () Bool (and |goto_symex::&92;guard#1| |goto_symex::&92;guard#2| |goto_symex::&92;guard#3| |goto_symex::&92;guard#4| |goto_symex::&92;guard#5| |goto_symex::&92;guard#6| |goto_symex::&92;guard#7| |goto_symex::&92;guard#8| |goto_symex::&92;guard#9| |goto_symex::&92;guard#10|))

; convert
(define-fun |B52| () Bool (and |goto_symex::&92;guard#1| |goto_symex::&92;guard#2| |goto_symex::&92;guard#3| |goto_symex::&92;guard#4| |goto_symex::&92;guard#5| |goto_symex::&92;guard#6| |goto_symex::&92;guard#7| |goto_symex::&92;guard#8| |goto_symex::&92;guard#9| |goto_symex::&92;guard#10|))

; convert
(define-fun |B53| () Bool (and |goto_symex::&92;guard#1| |goto_symex::&92;guard#2| |goto_symex::&92;guard#3| |goto_symex::&92;guard#4| |goto_symex::&92;guard#5| |goto_symex::&92;guard#6| |goto_symex::&92;guard#7| |goto_symex::&92;guard#8| |goto_symex::&92;guard#9| |goto_symex::&92;guard#10|))

; convert
(define-fun |B54| () Bool (and |goto_symex::&92;guard#1| |goto_symex::&92;guard#2| |goto_symex::&92;guard#3| |goto_symex::&92;guard#4| |goto_symex::&92;guard#5| |goto_symex::&92;guard#6| |goto_symex::&92;guard#7| |goto_symex::&92;guard#8| |goto_symex::&92;guard#9| |goto_symex::&92;guard#10|))

; convert
(define-fun |B55| () Bool (and |goto_symex::&92;guard#1| |goto_symex::&92;guard#2| |goto_symex::&92;guard#3| |goto_symex::&92;guard#4| |goto_symex::&92;guard#5| |goto_symex::&92;guard#6| |goto_symex::&92;guard#7| |goto_symex::&92;guard#8| |goto_symex::&92;guard#9| |goto_symex::&92;guard#10|))

; find_symbols
(declare-fun |goto_symex::&92;guard#11| () Bool)
; convert
(define-fun |B56| () Bool (and |goto_symex::&92;guard#1| |goto_symex::&92;guard#2| |goto_symex::&92;guard#3| |goto_symex::&92;guard#4| |goto_symex::&92;guard#5| |goto_symex::&92;guard#6| |goto_symex::&92;guard#7| |goto_symex::&92;guard#8| |goto_symex::&92;guard#9| |goto_symex::&92;guard#10| |goto_symex::&92;guard#11|))

; convert
(define-fun |B57| () Bool (and |goto_symex::&92;guard#1| |goto_symex::&92;guard#2| |goto_symex::&92;guard#3| |goto_symex::&92;guard#4| |goto_symex::&92;guard#5| |goto_symex::&92;guard#6| |goto_symex::&92;guard#7| |goto_symex::&92;guard#8| |goto_symex::&92;guard#9| |goto_symex::&92;guard#10| |goto_symex::&92;guard#11|))

; convert
(define-fun |B58| () Bool (and |goto_symex::&92;guard#1| |goto_symex::&92;guard#2| |goto_symex::&92;guard#3| |goto_symex::&92;guard#4| |goto_symex::&92;guard#5| |goto_symex::&92;guard#6| |goto_symex::&92;guard#7| |goto_symex::&92;guard#8| |goto_symex::&92;guard#9| |goto_symex::&92;guard#10| |goto_symex::&92;guard#11|))

; convert
(define-fun |B59| () Bool (and |goto_symex::&92;guard#1| |goto_symex::&92;guard#2| |goto_symex::&92;guard#3| |goto_symex::&92;guard#4| |goto_symex::&92;guard#5| |goto_symex::&92;guard#6| |goto_symex::&92;guard#7| |goto_symex::&92;guard#8| |goto_symex::&92;guard#9| |goto_symex::&92;guard#10| |goto_symex::&92;guard#11|))

; convert
(define-fun |B60| () Bool (and |goto_symex::&92;guard#1| |goto_symex::&92;guard#2| |goto_symex::&92;guard#3| |goto_symex::&92;guard#4| |goto_symex::&92;guard#5| |goto_symex::&92;guard#6| |goto_symex::&92;guard#7| |goto_symex::&92;guard#8| |goto_symex::&92;guard#9| |goto_symex::&92;guard#10| |goto_symex::&92;guard#11|))

; convert
(define-fun |B61| () Bool |goto_symex::&92;guard#1|)

; convert
(define-fun |B62| () Bool |goto_symex::&92;guard#1|)

; convert
(define-fun |B63| () Bool |goto_symex::&92;guard#1|)

; convert
(define-fun |B64| () Bool |goto_symex::&92;guard#1|)

; convert
(define-fun |B65| () Bool |goto_symex::&92;guard#1|)

; convert
(define-fun |B66| () Bool |goto_symex::&92;guard#1|)

; convert
(define-fun |B67| () Bool (not |goto_symex::&92;guard#1|))

; convert
(define-fun |B68| () Bool (not |goto_symex::&92;guard#1|))

; set_to true (equal)
(define-fun |__CPROVER_dead_object#1| () (_ BitVec 64) (_ bv0 64))

; set_to true (equal)
(define-fun |__CPROVER_deallocated#1| () (_ BitVec 64) (_ bv0 64))

; set_to true (equal)
(define-fun |__CPROVER_malloc_is_new_array#1| () Bool false)

; set_to true (equal)
(define-fun |__CPROVER_malloc_object#1| () (_ BitVec 64) (_ bv0 64))

; set_to true (equal)
(define-fun |__CPROVER_malloc_size#1| () (_ BitVec 64) (_ bv0 64))

; set_to true (equal)
(define-fun |__CPROVER_memory_leak#1| () (_ BitVec 64) (_ bv0 64))

; set_to true (equal)
(define-fun |__CPROVER_next_thread_id#1| () (_ BitVec 64) (_ bv0 64))

; set_to true (equal)
(define-fun |__CPROVER_pipe_count#1| () (_ BitVec 32) (_ bv0 32))

; set_to true (equal)
(define-fun |__CPROVER_rounding_mode!0#1| () (_ BitVec 32) (_ bv0 32))

; set_to true (equal)
(define-fun |__CPROVER_thread_id!0#1| () (_ BitVec 64) (_ bv0 64))

; the following is a substitute for lambda i. x
(declare-fun array_of.0 () (Array (_ BitVec 64) (_ BitVec 1)))
; set_to true (equal)
(define-fun |__CPROVER_threads_exited#1| () (Array (_ BitVec 64) (_ BitVec 1)) array_of.0)

; find_symbols
(declare-fun |main::1::x!0@1#1| () (_ BitVec 32))
; set_to true (equal)
(define-fun |fib::x!0@1#1| () (_ BitVec 32) |main::1::x!0@1#1|)

; set_to true
(assert (= |goto_symex::&92;guard#1| (not (bvsge |fib::x!0@1#1| (_ bv5 32)))))

; set_to true (equal)
(define-fun |lib::n!0@1#1| () (_ BitVec 32) |fib::x!0@1#1|)

; set_to true (equal)
(define-fun |lib::1::a!0@1#2| () (_ BitVec 32) (_ bv0 32))

; set_to true (equal)
(define-fun |lib::1::b!0@1#2| () (_ BitVec 32) (_ bv1 32))

; set_to true (equal)
(define-fun |lib::1::i!0@1#2| () (_ BitVec 32) (_ bv0 32))

; set_to true
(assert (= |goto_symex::&92;guard#2| (bvsge |lib::n!0@1#1| (_ bv1 32))))

; set_to true (equal)
(define-fun |lib::1::i!0@1#3| () (_ BitVec 32) (_ bv1 32))

; set_to true (equal)
(define-fun |lib::1::a!0@1#3| () (_ BitVec 32) (_ bv1 32))

; set_to true (equal)
(define-fun |lib::1::b!0@1#3| () (_ BitVec 32) (_ bv2 32))

; set_to true
(assert (= |goto_symex::&92;guard#3| (bvsge |lib::n!0@1#1| (_ bv2 32))))

; set_to true (equal)
(define-fun |lib::1::i!0@1#4| () (_ BitVec 32) (_ bv2 32))

; set_to true (equal)
(define-fun |lib::1::a!0@1#4| () (_ BitVec 32) (_ bv2 32))

; set_to true (equal)
(define-fun |lib::1::b!0@1#4| () (_ BitVec 32) (_ bv4 32))

; set_to true
(assert (= |goto_symex::&92;guard#4| (bvsge |lib::n!0@1#1| (_ bv3 32))))

; set_to true (equal)
(define-fun |lib::1::i!0@1#5| () (_ BitVec 32) (_ bv3 32))

; set_to true (equal)
(define-fun |lib::1::a!0@1#5| () (_ BitVec 32) (_ bv4 32))

; set_to true (equal)
(define-fun |lib::1::b!0@1#5| () (_ BitVec 32) (_ bv8 32))

; set_to true
(assert (= |goto_symex::&92;guard#5| (bvsge |lib::n!0@1#1| (_ bv4 32))))

; set_to true (equal)
(define-fun |lib::1::i!0@1#6| () (_ BitVec 32) (_ bv4 32))

; set_to true (equal)
(define-fun |lib::1::a!0@1#6| () (_ BitVec 32) (_ bv8 32))

; set_to true (equal)
(define-fun |lib::1::b!0@1#6| () (_ BitVec 32) (_ bv16 32))

; set_to true
(assert (= |goto_symex::&92;guard#6| (bvsge |lib::n!0@1#1| (_ bv5 32))))

; set_to true (equal)
(define-fun |lib::1::i!0@1#7| () (_ BitVec 32) (_ bv5 32))

; set_to true (equal)
(define-fun |lib::1::a!0@1#7| () (_ BitVec 32) (_ bv16 32))

; set_to true (equal)
(define-fun |lib::1::b!0@1#7| () (_ BitVec 32) (_ bv32 32))

; set_to true
(assert (= |goto_symex::&92;guard#7| (bvsge |lib::n!0@1#1| (_ bv6 32))))

; set_to true (equal)
(define-fun |lib::1::i!0@1#8| () (_ BitVec 32) (_ bv6 32))

; set_to true (equal)
(define-fun |lib::1::a!0@1#8| () (_ BitVec 32) (_ bv32 32))

; set_to true (equal)
(define-fun |lib::1::b!0@1#8| () (_ BitVec 32) (_ bv64 32))

; set_to true
(assert (= |goto_symex::&92;guard#8| (bvsge |lib::n!0@1#1| (_ bv7 32))))

; set_to true (equal)
(define-fun |lib::1::i!0@1#9| () (_ BitVec 32) (_ bv7 32))

; set_to true (equal)
(define-fun |lib::1::a!0@1#9| () (_ BitVec 32) (_ bv64 32))

; set_to true (equal)
(define-fun |lib::1::b!0@1#9| () (_ BitVec 32) (_ bv128 32))

; set_to true
(assert (= |goto_symex::&92;guard#9| (bvsge |lib::n!0@1#1| (_ bv8 32))))

; set_to true (equal)
(define-fun |lib::1::i!0@1#10| () (_ BitVec 32) (_ bv8 32))

; set_to true (equal)
(define-fun |lib::1::a!0@1#10| () (_ BitVec 32) (_ bv128 32))

; set_to true (equal)
(define-fun |lib::1::b!0@1#10| () (_ BitVec 32) (_ bv256 32))

; set_to true
(assert (= |goto_symex::&92;guard#10| (bvsge |lib::n!0@1#1| (_ bv9 32))))

; set_to true (equal)
(define-fun |lib::1::i!0@1#11| () (_ BitVec 32) (_ bv9 32))

; set_to true (equal)
(define-fun |lib::1::a!0@1#11| () (_ BitVec 32) (_ bv256 32))

; set_to true (equal)
(define-fun |lib::1::b!0@1#11| () (_ BitVec 32) (_ bv512 32))

; set_to true
(assert (= |goto_symex::&92;guard#11| (bvsge |lib::n!0@1#1| (_ bv10 32))))

; set_to true (equal)
(define-fun |lib::1::i!0@1#12| () (_ BitVec 32) (_ bv10 32))

; set_to true (equal)
(define-fun |lib::1::a!0@1#12| () (_ BitVec 32) (_ bv512 32))

; set_to true (equal)
(define-fun |lib::1::b!0@1#12| () (_ BitVec 32) (_ bv1024 32))

; set_to true (equal)
(define-fun |lib::1::a!0@1#13| () (_ BitVec 32) (ite |goto_symex::&92;guard#11| (_ bv512 32) (_ bv256 32)))

; set_to true (equal)
(define-fun |lib::1::b!0@1#13| () (_ BitVec 32) (ite |goto_symex::&92;guard#11| (_ bv1024 32) (_ bv512 32)))

; set_to true (equal)
(define-fun |lib::1::i!0@1#13| () (_ BitVec 32) (ite |goto_symex::&92;guard#11| (_ bv10 32) (_ bv9 32)))

; set_to true (equal)
(define-fun |lib::1::a!0@1#14| () (_ BitVec 32) (ite |goto_symex::&92;guard#10| |lib::1::a!0@1#13| (_ bv128 32)))

; set_to true (equal)
(define-fun |lib::1::b!0@1#14| () (_ BitVec 32) (ite |goto_symex::&92;guard#10| |lib::1::b!0@1#13| (_ bv256 32)))

; set_to true (equal)
(define-fun |lib::1::i!0@1#14| () (_ BitVec 32) (ite |goto_symex::&92;guard#10| |lib::1::i!0@1#13| (_ bv8 32)))

; set_to true (equal)
(define-fun |lib::1::a!0@1#15| () (_ BitVec 32) (ite |goto_symex::&92;guard#9| |lib::1::a!0@1#14| (_ bv64 32)))

; set_to true (equal)
(define-fun |lib::1::b!0@1#15| () (_ BitVec 32) (ite |goto_symex::&92;guard#9| |lib::1::b!0@1#14| (_ bv128 32)))

; set_to true (equal)
(define-fun |lib::1::i!0@1#15| () (_ BitVec 32) (ite |goto_symex::&92;guard#9| |lib::1::i!0@1#14| (_ bv7 32)))

; set_to true (equal)
(define-fun |lib::1::a!0@1#16| () (_ BitVec 32) (ite |goto_symex::&92;guard#8| |lib::1::a!0@1#15| (_ bv32 32)))

; set_to true (equal)
(define-fun |lib::1::b!0@1#16| () (_ BitVec 32) (ite |goto_symex::&92;guard#8| |lib::1::b!0@1#15| (_ bv64 32)))

; set_to true (equal)
(define-fun |lib::1::i!0@1#16| () (_ BitVec 32) (ite |goto_symex::&92;guard#8| |lib::1::i!0@1#15| (_ bv6 32)))

; set_to true (equal)
(define-fun |lib::1::a!0@1#17| () (_ BitVec 32) (ite |goto_symex::&92;guard#7| |lib::1::a!0@1#16| (_ bv16 32)))

; set_to true (equal)
(define-fun |lib::1::b!0@1#17| () (_ BitVec 32) (ite |goto_symex::&92;guard#7| |lib::1::b!0@1#16| (_ bv32 32)))

; set_to true (equal)
(define-fun |lib::1::i!0@1#17| () (_ BitVec 32) (ite |goto_symex::&92;guard#7| |lib::1::i!0@1#16| (_ bv5 32)))

; set_to true (equal)
(define-fun |lib::1::a!0@1#18| () (_ BitVec 32) (ite |goto_symex::&92;guard#6| |lib::1::a!0@1#17| (_ bv8 32)))

; set_to true (equal)
(define-fun |lib::1::b!0@1#18| () (_ BitVec 32) (ite |goto_symex::&92;guard#6| |lib::1::b!0@1#17| (_ bv16 32)))

; set_to true (equal)
(define-fun |lib::1::i!0@1#18| () (_ BitVec 32) (ite |goto_symex::&92;guard#6| |lib::1::i!0@1#17| (_ bv4 32)))

; set_to true (equal)
(define-fun |lib::1::a!0@1#19| () (_ BitVec 32) (ite |goto_symex::&92;guard#5| |lib::1::a!0@1#18| (_ bv4 32)))

; set_to true (equal)
(define-fun |lib::1::b!0@1#19| () (_ BitVec 32) (ite |goto_symex::&92;guard#5| |lib::1::b!0@1#18| (_ bv8 32)))

; set_to true (equal)
(define-fun |lib::1::i!0@1#19| () (_ BitVec 32) (ite |goto_symex::&92;guard#5| |lib::1::i!0@1#18| (_ bv3 32)))

; set_to true (equal)
(define-fun |lib::1::a!0@1#20| () (_ BitVec 32) (ite |goto_symex::&92;guard#4| |lib::1::a!0@1#19| (_ bv2 32)))

; set_to true (equal)
(define-fun |lib::1::b!0@1#20| () (_ BitVec 32) (ite |goto_symex::&92;guard#4| |lib::1::b!0@1#19| (_ bv4 32)))

; set_to true (equal)
(define-fun |lib::1::i!0@1#20| () (_ BitVec 32) (ite |goto_symex::&92;guard#4| |lib::1::i!0@1#19| (_ bv2 32)))

; set_to true (equal)
(define-fun |lib::1::a!0@1#21| () (_ BitVec 32) (ite |goto_symex::&92;guard#3| |lib::1::a!0@1#20| (_ bv1 32)))

; set_to true (equal)
(define-fun |lib::1::b!0@1#21| () (_ BitVec 32) (ite |goto_symex::&92;guard#3| |lib::1::b!0@1#20| (_ bv2 32)))

; set_to true (equal)
(define-fun |lib::1::i!0@1#21| () (_ BitVec 32) (ite |goto_symex::&92;guard#3| |lib::1::i!0@1#20| (_ bv1 32)))

; set_to true (equal)
(define-fun |lib::1::a!0@1#22| () (_ BitVec 32) (ite |goto_symex::&92;guard#2| |lib::1::a!0@1#21| (_ bv0 32)))

; set_to true (equal)
(define-fun |lib::1::b!0@1#22| () (_ BitVec 32) (ite |goto_symex::&92;guard#2| |lib::1::b!0@1#21| (_ bv1 32)))

; set_to true (equal)
(define-fun |lib::1::i!0@1#22| () (_ BitVec 32) (ite |goto_symex::&92;guard#2| |lib::1::i!0@1#21| (_ bv0 32)))

; set_to true (equal)
(define-fun |lib#return_value!0#1| () (_ BitVec 32) |lib::1::a!0@1#22|)

; find_symbols
(declare-fun |lib::1::a!0@1#23| () (_ BitVec 32))
; set_to true (equal)
(define-fun |lib::1::a!0@1#25| () (_ BitVec 32) |lib::1::a!0@1#23|)

; find_symbols
(declare-fun |lib::1::b!0@1#23| () (_ BitVec 32))
; set_to true (equal)
(define-fun |lib::1::b!0@1#25| () (_ BitVec 32) |lib::1::b!0@1#23|)

; find_symbols
(declare-fun |lib::1::i!0@1#23| () (_ BitVec 32))
; set_to true (equal)
(define-fun |lib::1::i!0@1#25| () (_ BitVec 32) |lib::1::i!0@1#23|)

; set_to true (equal)
(define-fun |fib::$tmp::return_value_lib$1!0@1#2| () (_ BitVec 32) |lib#return_value!0#1|)

; set_to true (equal)
(define-fun |fib#return_value!0#1| () (_ BitVec 32) |fib::$tmp::return_value_lib$1!0@1#2|)

; find_symbols
(declare-fun |fib::$tmp::return_value_lib$1!0@1#0| () (_ BitVec 32))
; set_to true (equal)
(define-fun |fib::$tmp::return_value_lib$1!0@1#5| () (_ BitVec 32) |fib::$tmp::return_value_lib$1!0@1#0|)

; find_symbols
(declare-fun |lib#return_value!0#0| () (_ BitVec 32))
; set_to true (equal)
(define-fun |lib#return_value!0#3| () (_ BitVec 32) |lib#return_value!0#0|)

; find_symbols
(declare-fun |fib#return_value!0#0| () (_ BitVec 32))
; set_to true (equal)
(define-fun |fib#return_value!0#2| () (_ BitVec 32) |fib#return_value!0#0|)

; set_to true (equal)
(define-fun |fib#return_value!0#3| () (_ BitVec 32) (_ bv0 32))

; find_symbols
(declare-fun |fib::$tmp::return_value_lib$1!0@1#3| () (_ BitVec 32))
; set_to true (equal)
(define-fun |fib::$tmp::return_value_lib$1!0@1#6| () (_ BitVec 32) (ite |goto_symex::&92;guard#1| |fib::$tmp::return_value_lib$1!0@1#3| |fib::$tmp::return_value_lib$1!0@1#5|))

; find_symbols
(declare-fun |lib#return_value!0#2| () (_ BitVec 32))
; set_to true (equal)
(define-fun |lib#return_value!0#4| () (_ BitVec 32) (ite |goto_symex::&92;guard#1| |lib#return_value!0#2| |lib#return_value!0#3|))

; set_to true (equal)
(define-fun |fib#return_value!0#4| () (_ BitVec 32) (ite |goto_symex::&92;guard#1| |fib#return_value!0#1| (_ bv0 32)))

; set_to true (equal)
(define-fun |main::$tmp::return_value_fib$1!0@1#2| () (_ BitVec 32) |fib#return_value!0#4|)

; convert
(define-fun |B69| () Bool (= |main::1::x!0@1#1| |main::1::x!0@1#1|))

; find_symbols
(declare-fun |main::$tmp::return_value_fib$1!0@1#1| () (_ BitVec 32))
; convert
(define-fun |B70| () Bool (= |main::$tmp::return_value_fib$1!0@1#1| |main::$tmp::return_value_fib$1!0@1#1|))

; find_symbols
(declare-fun |fib::$tmp::return_value_lib$1!0@1#1| () (_ BitVec 32))
; convert
(define-fun |B71| () Bool (= |fib::$tmp::return_value_lib$1!0@1#1| |fib::$tmp::return_value_lib$1!0@1#1|))

; find_symbols
(declare-fun |lib::1::a!0@1#1| () (_ BitVec 32))
; convert
(define-fun |B72| () Bool (= |lib::1::a!0@1#1| |lib::1::a!0@1#1|))

; find_symbols
(declare-fun |lib::1::b!0@1#1| () (_ BitVec 32))
; convert
(define-fun |B73| () Bool (= |lib::1::b!0@1#1| |lib::1::b!0@1#1|))

; find_symbols
(declare-fun |lib::1::i!0@1#1| () (_ BitVec 32))
; convert
(define-fun |B74| () Bool (= |lib::1::i!0@1#1| |lib::1::i!0@1#1|))

; convert
(define-fun |B75| () Bool (not (and |goto_symex::&92;guard#1| |goto_symex::&92;guard#2| |goto_symex::&92;guard#3| |goto_symex::&92;guard#4| |goto_symex::&92;guard#5| |goto_symex::&92;guard#6| |goto_symex::&92;guard#7| |goto_symex::&92;guard#8| |goto_symex::&92;guard#9| |goto_symex::&92;guard#10| |goto_symex::&92;guard#11|)))

; set_to false
(assert (not (and |goto_symex::&92;guard#1| |goto_symex::&92;guard#2| |goto_symex::&92;guard#3| |goto_symex::&92;guard#4| |goto_symex::&92;guard#5| |goto_symex::&92;guard#6| |goto_symex::&92;guard#7| |goto_symex::&92;guard#8| |goto_symex::&92;guard#9| |goto_symex::&92;guard#10| |goto_symex::&92;guard#11|)))

; set_to false
(assert (not (= |main::$tmp::return_value_fib$1!0@1#2| (_ bv7 32))))

; convert
(define-fun |B76| () Bool (bvsge |fib::x!0@1#1| (_ bv5 32)))

; convert
(define-fun |B77| () Bool (not (bvsge |lib::n!0@1#1| (_ bv1 32))))

; convert
(define-fun |B78| () Bool (not (bvsge |lib::n!0@1#1| (_ bv2 32))))

; convert
(define-fun |B79| () Bool (not (bvsge |lib::n!0@1#1| (_ bv3 32))))

; convert
(define-fun |B80| () Bool (not (bvsge |lib::n!0@1#1| (_ bv4 32))))

; convert
(define-fun |B81| () Bool (not (bvsge |lib::n!0@1#1| (_ bv5 32))))

; convert
(define-fun |B82| () Bool (not (bvsge |lib::n!0@1#1| (_ bv6 32))))

; convert
(define-fun |B83| () Bool (not (bvsge |lib::n!0@1#1| (_ bv7 32))))

; convert
(define-fun |B84| () Bool (not (bvsge |lib::n!0@1#1| (_ bv8 32))))

; convert
(define-fun |B85| () Bool (not (bvsge |lib::n!0@1#1| (_ bv9 32))))

; convert
(define-fun |B86| () Bool (not (bvsge |lib::n!0@1#1| (_ bv10 32))))

(check-sat)

(get-value (|B0|))
(get-value (|B1|))
(get-value (|B10|))
(get-value (|B11|))
(get-value (|B12|))
(get-value (|B13|))
(get-value (|B14|))
(get-value (|B15|))
(get-value (|B16|))
(get-value (|B17|))
(get-value (|B18|))
(get-value (|B19|))
(get-value (|B2|))
(get-value (|B20|))
(get-value (|B21|))
(get-value (|B22|))
(get-value (|B23|))
(get-value (|B24|))
(get-value (|B25|))
(get-value (|B26|))
(get-value (|B27|))
(get-value (|B28|))
(get-value (|B29|))
(get-value (|B3|))
(get-value (|B30|))
(get-value (|B31|))
(get-value (|B32|))
(get-value (|B33|))
(get-value (|B34|))
(get-value (|B35|))
(get-value (|B36|))
(get-value (|B37|))
(get-value (|B38|))
(get-value (|B39|))
(get-value (|B4|))
(get-value (|B40|))
(get-value (|B41|))
(get-value (|B42|))
(get-value (|B43|))
(get-value (|B44|))
(get-value (|B45|))
(get-value (|B46|))
(get-value (|B47|))
(get-value (|B48|))
(get-value (|B49|))
(get-value (|B5|))
(get-value (|B50|))
(get-value (|B51|))
(get-value (|B52|))
(get-value (|B53|))
(get-value (|B54|))
(get-value (|B55|))
(get-value (|B56|))
(get-value (|B57|))
(get-value (|B58|))
(get-value (|B59|))
(get-value (|B6|))
(get-value (|B60|))
(get-value (|B61|))
(get-value (|B62|))
(get-value (|B63|))
(get-value (|B64|))
(get-value (|B65|))
(get-value (|B66|))
(get-value (|B67|))
(get-value (|B68|))
(get-value (|B69|))
(get-value (|B7|))
(get-value (|B70|))
(get-value (|B71|))
(get-value (|B72|))
(get-value (|B73|))
(get-value (|B74|))
(get-value (|B75|))
(get-value (|B76|))
(get-value (|B77|))
(get-value (|B78|))
(get-value (|B79|))
(get-value (|B8|))
(get-value (|B80|))
(get-value (|B81|))
(get-value (|B82|))
(get-value (|B83|))
(get-value (|B84|))
(get-value (|B85|))
(get-value (|B86|))
(get-value (|B9|))
(get-value (|__CPROVER_dead_object#1|))
(get-value (|__CPROVER_deallocated#1|))
(get-value (|__CPROVER_malloc_is_new_array#1|))
(get-value (|__CPROVER_malloc_object#1|))
(get-value (|__CPROVER_malloc_size#1|))
(get-value (|__CPROVER_memory_leak#1|))
(get-value (|__CPROVER_next_thread_id#1|))
(get-value (|__CPROVER_pipe_count#1|))
(get-value (|__CPROVER_rounding_mode!0#1|))
(get-value (|__CPROVER_thread_id!0#1|))
(get-value (|__CPROVER_threads_exited#1|))
(get-value (|fib#return_value!0#0|))
(get-value (|fib#return_value!0#1|))
(get-value (|fib#return_value!0#2|))
(get-value (|fib#return_value!0#3|))
(get-value (|fib#return_value!0#4|))
(get-value (|fib::$tmp::return_value_lib$1!0@1#0|))
(get-value (|fib::$tmp::return_value_lib$1!0@1#1|))
(get-value (|fib::$tmp::return_value_lib$1!0@1#2|))
(get-value (|fib::$tmp::return_value_lib$1!0@1#3|))
(get-value (|fib::$tmp::return_value_lib$1!0@1#5|))
(get-value (|fib::$tmp::return_value_lib$1!0@1#6|))
(get-value (|fib::x!0@1#1|))
(get-value (|goto_symex::&92;guard#1|))
(get-value (|goto_symex::&92;guard#10|))
(get-value (|goto_symex::&92;guard#11|))
(get-value (|goto_symex::&92;guard#2|))
(get-value (|goto_symex::&92;guard#3|))
(get-value (|goto_symex::&92;guard#4|))
(get-value (|goto_symex::&92;guard#5|))
(get-value (|goto_symex::&92;guard#6|))
(get-value (|goto_symex::&92;guard#7|))
(get-value (|goto_symex::&92;guard#8|))
(get-value (|goto_symex::&92;guard#9|))
(get-value (|lib#return_value!0#0|))
(get-value (|lib#return_value!0#1|))
(get-value (|lib#return_value!0#2|))
(get-value (|lib#return_value!0#3|))
(get-value (|lib#return_value!0#4|))
(get-value (|lib::1::a!0@1#1|))
(get-value (|lib::1::a!0@1#10|))
(get-value (|lib::1::a!0@1#11|))
(get-value (|lib::1::a!0@1#12|))
(get-value (|lib::1::a!0@1#13|))
(get-value (|lib::1::a!0@1#14|))
(get-value (|lib::1::a!0@1#15|))
(get-value (|lib::1::a!0@1#16|))
(get-value (|lib::1::a!0@1#17|))
(get-value (|lib::1::a!0@1#18|))
(get-value (|lib::1::a!0@1#19|))
(get-value (|lib::1::a!0@1#2|))
(get-value (|lib::1::a!0@1#20|))
(get-value (|lib::1::a!0@1#21|))
(get-value (|lib::1::a!0@1#22|))
(get-value (|lib::1::a!0@1#23|))
(get-value (|lib::1::a!0@1#25|))
(get-value (|lib::1::a!0@1#3|))
(get-value (|lib::1::a!0@1#4|))
(get-value (|lib::1::a!0@1#5|))
(get-value (|lib::1::a!0@1#6|))
(get-value (|lib::1::a!0@1#7|))
(get-value (|lib::1::a!0@1#8|))
(get-value (|lib::1::a!0@1#9|))
(get-value (|lib::1::b!0@1#1|))
(get-value (|lib::1::b!0@1#10|))
(get-value (|lib::1::b!0@1#11|))
(get-value (|lib::1::b!0@1#12|))
(get-value (|lib::1::b!0@1#13|))
(get-value (|lib::1::b!0@1#14|))
(get-value (|lib::1::b!0@1#15|))
(get-value (|lib::1::b!0@1#16|))
(get-value (|lib::1::b!0@1#17|))
(get-value (|lib::1::b!0@1#18|))
(get-value (|lib::1::b!0@1#19|))
(get-value (|lib::1::b!0@1#2|))
(get-value (|lib::1::b!0@1#20|))
(get-value (|lib::1::b!0@1#21|))
(get-value (|lib::1::b!0@1#22|))
(get-value (|lib::1::b!0@1#23|))
(get-value (|lib::1::b!0@1#25|))
(get-value (|lib::1::b!0@1#3|))
(get-value (|lib::1::b!0@1#4|))
(get-value (|lib::1::b!0@1#5|))
(get-value (|lib::1::b!0@1#6|))
(get-value (|lib::1::b!0@1#7|))
(get-value (|lib::1::b!0@1#8|))
(get-value (|lib::1::b!0@1#9|))
(get-value (|lib::1::i!0@1#1|))
(get-value (|lib::1::i!0@1#10|))
(get-value (|lib::1::i!0@1#11|))
(get-value (|lib::1::i!0@1#12|))
(get-value (|lib::1::i!0@1#13|))
(get-value (|lib::1::i!0@1#14|))
(get-value (|lib::1::i!0@1#15|))
(get-value (|lib::1::i!0@1#16|))
(get-value (|lib::1::i!0@1#17|))
(get-value (|lib::1::i!0@1#18|))
(get-value (|lib::1::i!0@1#19|))
(get-value (|lib::1::i!0@1#2|))
(get-value (|lib::1::i!0@1#20|))
(get-value (|lib::1::i!0@1#21|))
(get-value (|lib::1::i!0@1#22|))
(get-value (|lib::1::i!0@1#23|))
(get-value (|lib::1::i!0@1#25|))
(get-value (|lib::1::i!0@1#3|))
(get-value (|lib::1::i!0@1#4|))
(get-value (|lib::1::i!0@1#5|))
(get-value (|lib::1::i!0@1#6|))
(get-value (|lib::1::i!0@1#7|))
(get-value (|lib::1::i!0@1#8|))
(get-value (|lib::1::i!0@1#9|))
(get-value (|lib::n!0@1#1|))
(get-value (|main::$tmp::return_value_fib$1!0@1#1|))
(get-value (|main::$tmp::return_value_fib$1!0@1#2|))
(get-value (|main::1::x!0@1#1|))

(exit)
; end of SMT2 file
